32      4       
12      14      13      16      
0       0       0       0       0       1       2       
10      7       14      13      14      1       3       
2       9       11      10      13      1       4       
8       12      14      2       1       2       8       5       
1       12      14      12      8       1       6       
10      12      4       13      16      1       7       
5       11      14      10      16      1       9       
1       10      14      11      16      1       9       
9       12      12      13      16      2       15      10      
8       12      11      13      16      1       11      
4       12      14      12      16      2       25      12      
3       12      7       13      9       1       13      
3       12      12      13      15      1       14      
5       9       14      13      16      1       16      
1       12      14      13      6       1       16      
9       12      14      8       13      1       17      
3       12      14      1       16      2       23      18      
1       6       14      6       16      2       20      19      
9       2       7       11      16      1       21      
6       5       14      13      16      1       21      
9       12      11      9       16      1       22      
7       7       1       13      16      1       24      
5       12      4       13      13      1       24      
5       1       13      6       12      2       27      26      
8       12      8       4       16      2       27      26      
9       12      10      13      11      1       28      
3       4       13      13      1       1       28      
6       12      14      13      9       1       29      
4       5       5       7       5       1       30      
7       8       14      8       16      1       31      
5       12      11      13      14      1       32      
0       0       0       0       0       0       
